41
17
32
33
23
20
41
32
47
1
14
25
22
1
15
2
42
23
13
38
23
44
23
10
13
23
10
33
14
47
40
36
25
48
11
10
3
46
2
19
29
12
20
43
8
41
20
35
8
20
34
2
10
7
25
50
47
21
36
33
28
14
25
47
20
5
42
22
35
8
36
28
32
3
26
9
14
2
23
34
10
28
44
4
30
8
37
2
8
35
41
32
32
15
36
45
14
47
1
30
45
1
36
45
47
14
6
19
27
9
18
9
5
39
42
7
2
26
39
6
33
23
7
37
27
23
50
4
40
48
29
49
28
39
36
13
16
11
30
49
47
41
47
30
9
30
14
34
44
10
9
43
49
49
12
26
32
17
42
38
13
50
18
41
15
39
21
22
3
22
32
32
13
13
43
21
38
6
31
32
25
25
32
22
25
18
27
45
34
22
11
36
13
28
7
19
20
18
39
27
